c description: Random 3-CNF over 15 variables and 65 clauses
c generator: CNFgen (0.9.0)
c copyright: (C) 2012-2020 Massimo Lauria <massimo.lauria@uniroma1.it>
c url: https://massimolauria.net/cnfgen
c
p cnf 15 65
4 -8 -13 0
-1 -4 7 0
-1 5 -7 0
-1 4 -11 0
-4 10 13 0
2 -11 -13 0
-8 10 11 0
4 -8 10 0
-5 -6 -15 0
2 -4 -13 0
-12 14 -15 0
-8 13 -15 0
-9 12 -15 0
8 13 14 0
8 9 -11 0
2 5 -10 0
-7 -8 -15 0
3 7 -11 0
-4 6 -12 0
-4 -7 14 0
5 11 12 0
6 -7 -14 0
-6 -10 -13 0
4 5 -14 0
6 10 13 0
1 -5 10 0
5 -9 -12 0
-2 6 11 0
-1 -8 -15 0
-1 5 -12 0
-4 -6 -11 0
-2 -8 -11 0
2 -7 15 0
-2 8 -14 0
-1 -9 -14 0
-1 13 -15 0
4 -6 11 0
8 -12 -13 0
1 11 -12 0
-5 -8 10 0
5 9 12 0
5 -14 -15 0
-1 3 9 0
-1 10 14 0
3 9 14 0
1 -4 -7 0
-3 4 -13 0
2 6 9 0
-9 11 14 0
2 8 10 0
-6 -13 15 0
2 -5 -6 0
10 11 15 0
11 12 -14 0
5 7 10 0
3 9 -15 0
-5 10 15 0
1 2 -9 0
3 -4 -9 0
6 7 10 0
1 4 8 0
10 -14 15 0
2 11 13 0
6 11 -13 0
3 8 11 0